9957.0
1 1 1 1 1 1 1 1 1 1 1 1 1 1 1 1 1 1 1 1 
16 37 38 66 
9 39 40 
17 56 
7 41 42 63 65 
62 
20 45 55 
12 14 32 69 
30 52 
23 25 33 46 
3 22 44 
1 13 35 36 70 
2 10 21 26 60 61 64 
0 24 
29 53 54 
18 19 34 57 58 59 
4 15 48 49 67 
6 27 43 50 
8 28 51 
5 11 71 75 76 77 
31 47 68 72 73 74 78 79 
